proyfinal/src/viki/013/experimentInOfficeAgust.take6.output/ad90e9fb-6a72-4e38-913a-34f0d0010280.als.out
Reading from standard input... Use '--help' for help.
============================[ Problem Statistics ]=============================
|                                                                             |
|  Number of variables:         87638                                         |
|  Number of clauses:          161767                                         |
|  Parse time:                   0.04 s                                       |
|                                                                             |
============================[ Search Statistics ]==============================
| Conflicts |          ORIGINAL         |          LEARNT          | Progress |
|           |    Vars  Clauses Literals |    Limit  Clauses Lit/Cl |          |
===============================================================================
|       100 |   63696   109935   274910 |    40309      100     33 | 27.319 % |
|       250 |   63696   109935   274910 |    44340      250     76 | 27.319 % |
|       475 |   63696   109935   274910 |    48774      475     80 | 27.319 % |
|       812 |   63696   109935   274910 |    53651      812     78 | 27.319 % |
|      1318 |   63696   109935   274910 |    59017     1318    110 | 27.319 % |
|      2077 |   63645   109685   274324 |    64918     1956    104 | 27.377 % |
|      3216 |   63645   109685   274324 |    71410     3095     96 | 27.377 % |
|      4924 |   63584   109443   273758 |    78551     4796    114 | 27.447 % |
|      7486 |   47892    62568   158690 |    86406     7068     90 | 45.352 % |
===============================================================================
restarts              : 42
conflicts             : 9717           (6038 /sec)
decisions             : 34362          (0.00 % random) (21350 /sec)
propagations          : 16217551       (10076606 /sec)
conflict literals     : 734587         (39.01 % deleted)
Memory used           : 31.72 MB
CPU time              : 1.60943 s

UNSATISFIABLE
